; --full-saturate-quant --inst-when=full-last-call --inst-no-entail --term-db-mode=relevant --random-seed=1 --lang=smt2 --tlimit 647
;(set-option :produce-unsat-cores true)
(set-logic ALL_SUPPORTED)
(declare-sort A$ 0)
(declare-sort Nat$ 0)
(declare-sort A_llist_a_llist_fun$ 0)
(declare-codatatypes () ((A_llist$ (lNil$) (lCons$ (lhd$ A$) (ltl$ A_llist$)))))
(declare-datatypes () ((Nat_option$ (none$) (some$ (the$ Nat$)))
  (Enat$ (abs_enat$ (rep_enat$ Nat_option$)))))
(declare-fun m$ () Nat$)
(declare-fun xs$ () A_llist$)
(declare-fun suc$ (Nat$) Nat$)
(declare-fun enat$ (Nat$) Enat$)
(declare-fun less$ (Enat$ Enat$) Bool)
(declare-fun lnth$ (A_llist$ Nat$) A$)
(declare-fun ltake$ (Enat$) A_llist_a_llist_fun$)
(declare-fun fun_app$ (A_llist_a_llist_fun$ A_llist$) A_llist$)
(declare-fun lappend$ (A_llist$) A_llist_a_llist_fun$)
(declare-fun llength$ (A_llist$) Enat$)
(assert (! (not (= (fun_app$ (ltake$ (enat$ (suc$ m$))) xs$) (fun_app$ (lappend$ (fun_app$ (ltake$ (enat$ m$)) xs$)) (lCons$ (lnth$ xs$ m$) lNil$)))) :named a0))
(assert (! (less$ (enat$ m$) (llength$ xs$)) :named a1))
(assert (! (forall ((?v0 A$) (?v1 A_llist$) (?v2 A$) (?v3 A_llist$)) (= (= (lCons$ ?v0 ?v1) (lCons$ ?v2 ?v3)) (and (= ?v0 ?v2) (= ?v1 ?v3)))) :named a2))
(assert (! (forall ((?v0 A$) (?v1 A_llist$) (?v2 A_llist$)) (! (= (fun_app$ (lappend$ (lCons$ ?v0 ?v1)) ?v2) (lCons$ ?v0 (fun_app$ (lappend$ ?v1) ?v2))) :pattern ((fun_app$ (lappend$ (lCons$ ?v0 ?v1)) ?v2)))) :named a3))
(assert (! (forall ((?v0 A_llist$)) (! (= (fun_app$ (lappend$ ?v0) lNil$) ?v0) :pattern ((lappend$ ?v0)))) :named a4))
(assert (! (forall ((?v0 A_llist$)) (! (= (fun_app$ (lappend$ lNil$) ?v0) ?v0) :pattern ((fun_app$ (lappend$ lNil$) ?v0)))) :named a5))
(assert (! (forall ((?v0 Enat$)) (! (= (fun_app$ (ltake$ ?v0) lNil$) lNil$) :pattern ((ltake$ ?v0)))) :named a6))
(assert (! (forall ((?v0 A$) (?v1 A_llist$) (?v2 Nat$)) (! (= (lnth$ (lCons$ ?v0 ?v1) (suc$ ?v2)) (lnth$ ?v1 ?v2)) :pattern ((lnth$ (lCons$ ?v0 ?v1) (suc$ ?v2))))) :named a7))
(assert (! (forall ((?v0 A_llist$) (?v1 A_llist$)) (= (= lNil$ (fun_app$ (lappend$ ?v0) ?v1)) (and (= ?v0 lNil$) (= ?v1 lNil$)))) :named a8))
(assert (! (forall ((?v0 A_llist$) (?v1 A_llist$)) (= (= (fun_app$ (lappend$ ?v0) ?v1) lNil$) (and (= ?v0 lNil$) (= ?v1 lNil$)))) :named a9))
(assert (! (forall ((?v0 A_llist$) (?v1 A_llist$) (?v2 A_llist$)) (= (fun_app$ (lappend$ (fun_app$ (lappend$ ?v0) ?v1)) ?v2) (fun_app$ (lappend$ ?v0) (fun_app$ (lappend$ ?v1) ?v2)))) :named a10))
(assert (! (forall ((?v0 A_llist$) (?v1 A$) (?v2 A_llist$)) (= (fun_app$ (lappend$ (fun_app$ (lappend$ ?v0) (lCons$ ?v1 lNil$))) ?v2) (fun_app$ (lappend$ ?v0) (lCons$ ?v1 ?v2)))) :named a11))
(assert (! (forall ((?v0 A_llist$)) (= (not (= ?v0 lNil$)) (exists ((?v1 A$) (?v2 A_llist$)) (= ?v0 (lCons$ ?v1 ?v2))))) :named a12))
(assert (! (= (fun_app$ (lappend$ lNil$) lNil$) lNil$) :named a13))
(assert (! (forall ((?v0 A_llist$)) (=> (and (=> (= ?v0 lNil$) false) (forall ((?v1 A$) (?v2 A_llist$)) (=> (= ?v0 (lCons$ ?v1 ?v2)) false))) false)) :named a14))
(assert (! (forall ((?v0 Nat$) (?v1 A_llist$) (?v2 A_llist$)) (=> (less$ (enat$ ?v0) (llength$ ?v1)) (= (lnth$ (fun_app$ (lappend$ ?v1) ?v2) ?v0) (lnth$ ?v1 ?v0)))) :named a15))
(assert (! (forall ((?v0 Nat$) (?v1 Enat$) (?v2 A_llist$)) (=> (less$ (enat$ ?v0) ?v1) (= (lnth$ (fun_app$ (ltake$ ?v1) ?v2) ?v0) (lnth$ ?v2 ?v0)))) :named a16))
(assert (! (forall ((?v0 A$) (?v1 A_llist$)) (not (= lNil$ (lCons$ ?v0 ?v1)))) :named a17))
(assert (! (forall ((?v0 Nat$) (?v1 Nat$)) (= (= (enat$ ?v0) (enat$ ?v1)) (= ?v0 ?v1))) :named a18))
(check-sat)
;(get-unsat-core)
